p edge 40 205 10
v 4 1 3 5 10
v 2 29 30
v 3 7 12 31
v 6 13 16 24 26 28 39
v 4 6 20 25 35
v 4 14 22 36 40
v 5 4 18 23 33 34
v 5 8 11 17 21 37
v 2 27 38
v 5 2 9 15 19 32
e 1 2
e 1 3
e 1 6
e 1 7
e 1 12
e 1 26
e 1 27
e 1 29
e 1 35
e 2 5
e 2 11
e 2 16
e 2 20
e 2 22
e 2 23
e 2 26
e 2 28
e 2 38
e 2 40
e 3 4
e 3 9
e 3 12
e 3 17
e 3 22
e 3 26
e 4 7
e 4 9
e 4 11
e 4 13
e 4 17
e 4 24
e 4 27
e 4 38
e 4 39
e 5 6
e 5 9
e 5 10
e 5 11
e 5 15
e 5 18
e 5 21
e 5 23
e 5 26
e 5 27
e 5 39
e 6 9
e 6 10
e 6 12
e 6 14
e 6 15
e 6 17
e 6 20
e 6 28
e 6 35
e 7 29
e 7 31
e 7 34
e 8 9
e 8 14
e 8 18
e 8 19
e 8 26
e 8 32
e 8 35
e 9 13
e 9 14
e 9 15
e 9 16
e 9 17
e 9 21
e 9 26
e 9 27
e 9 33
e 10 15
e 10 16
e 10 18
e 10 19
e 10 21
e 10 23
e 10 25
e 10 28
e 10 40
e 11 12
e 11 15
e 11 18
e 11 26
e 11 29
e 11 32
e 11 33
e 11 36
e 11 38
e 12 13
e 12 15
e 12 16
e 12 17
e 12 18
e 12 22
e 12 26
e 12 30
e 12 36
e 13 14
e 13 17
e 13 21
e 13 24
e 13 25
e 13 26
e 13 27
e 13 29
e 13 31
e 13 37
e 14 21
e 14 22
e 14 24
e 14 26
e 14 27
e 14 31
e 14 38
e 14 39
e 15 20
e 15 23
e 15 26
e 15 31
e 15 32
e 15 33
e 16 19
e 16 21
e 16 22
e 16 24
e 16 30
e 16 32
e 16 33
e 16 34
e 17 19
e 17 21
e 17 22
e 17 35
e 18 21
e 18 22
e 18 23
e 18 28
e 18 29
e 18 32
e 18 33
e 18 34
e 18 36
e 18 37
e 18 39
e 19 25
e 19 28
e 19 32
e 19 36
e 20 25
e 20 33
e 20 34
e 20 35
e 20 39
e 21 24
e 21 26
e 22 25
e 22 34
e 22 37
e 23 24
e 23 26
e 23 33
e 23 37
e 23 38
e 23 40
e 24 25
e 24 26
e 24 30
e 24 40
e 25 30
e 25 31
e 25 38
e 26 33
e 26 34
e 26 35
e 26 38
e 27 35
e 27 38
e 28 30
e 28 34
e 28 37
e 29 30
e 29 31
e 29 34
e 29 35
e 29 36
e 30 35
e 30 40
e 31 35
e 31 36
e 31 37
e 31 39
e 32 35
e 32 38
e 32 39
e 33 35
e 34 37
e 34 38
e 34 39
e 35 36
e 35 40
e 36 39
e 38 40
